(declare-fun var0 () String)
(assert (str.in.re var0 (re.++ (re.union (re.union (str.to.re "zz") (str.to.re "AAA")) (re.union (str.to.re "B") (str.to.re "CC"))) (re.++ (re.+ (re.* (str.to.re "yyy"))) (re.++ (re.* (re.* (str.to.re "xxx"))) (re.++ (re.union (re.union (str.to.re "tt") (str.to.re "u")) (re.union (str.to.re "v") (str.to.re "www"))) (re.++ (re.union (re.union (str.to.re "qq") (str.to.re "rrr")) (re.* (str.to.re "sss"))) (re.++ (re.* (re.+ (str.to.re "ppp"))) (re.++ (re.+ (re.* (str.to.re "ooo"))) (re.++ (re.+ (re.union (str.to.re "mm") (str.to.re "nn"))) (re.++ (re.* (re.+ (str.to.re "l"))) (re.++ (re.+ (re.+ (str.to.re "kkk"))) (re.++ (re.* (re.+ (str.to.re "jjj"))) (re.++ (re.+ (re.union (str.to.re "h") (str.to.re "i"))) (re.++ (re.* (re.union (str.to.re "fff") (str.to.re "g"))) (re.++ (re.union (re.* (str.to.re "c")) (re.union (str.to.re "ddd") (str.to.re "ee"))) (re.++ (re.* (re.+ (str.to.re "b"))) (re.++ (re.+ (re.union (str.to.re "999") (str.to.re "aa"))) (re.++ (re.union (re.+ (str.to.re "777")) (re.* (str.to.re "88"))) (re.++ (re.+ (re.+ (str.to.re "666"))) (re.++ (re.* (re.union (str.to.re "44") (str.to.re "55"))) (re.++ (re.union (re.union (str.to.re "11") (str.to.re "2")) (re.* (str.to.re "3"))) (re.* (re.+ (str.to.re "00")))))))))))))))))))))))))
(check-sat)